c 0.011124849319458008 (encode time in sec)
p cnf 109 1048
1 2 3 4 0
1 2 -3 5 0
1 -2 3 5 0
1 -2 -3 4 0
-1 2 3 5 0
-1 2 -3 5 0
-1 -2 3 5 0
-1 -2 -3 4 0
6 7 8 9 0
6 7 -8 10 0
6 -7 8 10 0
6 -7 -8 9 0
-6 7 8 10 0
-6 7 -8 10 0
-6 -7 8 10 0
-6 -7 -8 9 0
11 12 13 14 0
11 12 -13 15 0
11 -12 13 15 0
11 -12 -13 14 0
-11 12 13 15 0
-11 12 -13 15 0
-11 -12 13 15 0
-11 -12 -13 14 0
16 17 18 1 2 3 6 7 8 20 0
16 17 18 1 2 3 6 7 -8 20 0
16 17 18 1 2 3 6 -7 8 19 0
16 17 18 1 2 3 6 -7 -8 0
16 17 18 1 2 3 -6 7 8 0
16 17 18 1 2 3 -6 7 -8 0
16 17 18 1 2 3 -6 -7 8 0
16 17 18 1 2 3 -6 -7 -8 0
16 17 18 1 2 -3 6 7 8 20 0
16 17 18 1 2 -3 6 7 -8 20 0
16 17 18 1 2 -3 6 -7 8 23 0
16 17 18 1 2 -3 6 -7 -8 21 0
16 17 18 1 2 -3 -6 7 8 0
16 17 18 1 2 -3 -6 7 -8 0
16 17 18 1 2 -3 -6 -7 8 0
16 17 18 1 2 -3 -6 -7 -8 0
16 17 18 1 -2 3 6 7 8 21 0
16 17 18 1 -2 3 6 7 -8 24 0
16 17 18 1 -2 3 6 -7 8 0
16 17 18 1 -2 3 6 -7 -8 0
16 17 18 1 -2 3 -6 7 8 0
16 17 18 1 -2 3 -6 7 -8 0
16 17 18 1 -2 3 -6 -7 8 0
16 17 18 1 -2 3 -6 -7 -8 0
16 17 18 1 -2 -3 6 7 8 20 0
16 17 18 1 -2 -3 6 7 -8 32 0
16 17 18 1 -2 -3 6 -7 8 0
16 17 18 1 -2 -3 6 -7 -8 0
16 17 18 1 -2 -3 -6 7 8 0
16 17 18 1 -2 -3 -6 7 -8 0
16 17 18 1 -2 -3 -6 -7 8 0
16 17 18 1 -2 -3 -6 -7 -8 0
16 17 18 -1 2 3 6 7 8 0
16 17 18 -1 2 3 6 7 -8 32 0
16 17 18 -1 2 3 6 -7 8 0
16 17 18 -1 2 3 6 -7 -8 0
16 17 18 -1 2 3 -6 7 8 0
16 17 18 -1 2 3 -6 7 -8 0
16 17 18 -1 2 3 -6 -7 8 0
16 17 18 -1 2 3 -6 -7 -8 0
16 17 18 -1 2 -3 6 7 8 21 0
16 17 18 -1 2 -3 6 7 -8 0
16 17 18 -1 2 -3 6 -7 8 0
16 17 18 -1 2 -3 6 -7 -8 0
16 17 18 -1 2 -3 -6 7 8 0
16 17 18 -1 2 -3 -6 7 -8 0
16 17 18 -1 2 -3 -6 -7 8 0
16 17 18 -1 2 -3 -6 -7 -8 0
16 17 18 -1 -2 3 6 7 8 21 0
16 17 18 -1 -2 3 6 7 -8 0
16 17 18 -1 -2 3 6 -7 8 0
16 17 18 -1 -2 3 6 -7 -8 0
16 17 18 -1 -2 3 -6 7 8 0
16 17 18 -1 -2 3 -6 7 -8 0
16 17 18 -1 -2 3 -6 -7 8 0
16 17 18 -1 -2 3 -6 -7 -8 0
16 17 18 -1 -2 -3 6 7 8 0
16 17 18 -1 -2 -3 6 7 -8 0
16 17 18 -1 -2 -3 6 -7 8 0
16 17 18 -1 -2 -3 6 -7 -8 0
16 17 18 -1 -2 -3 -6 7 8 0
16 17 18 -1 -2 -3 -6 7 -8 0
16 17 18 -1 -2 -3 -6 -7 8 0
16 17 18 -1 -2 -3 -6 -7 -8 0
16 17 -18 1 2 3 6 7 8 0
16 17 -18 1 2 3 6 7 -8 0
16 17 -18 1 2 3 6 -7 8 32 0
16 17 -18 1 2 3 6 -7 -8 25 0
16 17 -18 1 2 3 -6 7 8 26 0
16 17 -18 1 2 3 -6 7 -8 0
16 17 -18 1 2 3 -6 -7 8 27 0
16 17 -18 1 2 3 -6 -7 -8 0
16 17 -18 1 2 -3 6 7 8 0
16 17 -18 1 2 -3 6 7 -8 0
16 17 -18 1 2 -3 6 -7 8 0
16 17 -18 1 2 -3 6 -7 -8 0
16 17 -18 1 2 -3 -6 7 8 0
16 17 -18 1 2 -3 -6 7 -8 0
16 17 -18 1 2 -3 -6 -7 8 0
16 17 -18 1 2 -3 -6 -7 -8 0
16 17 -18 1 -2 3 6 7 8 21 0
16 17 -18 1 -2 3 6 7 -8 24 0
16 17 -18 1 -2 3 6 -7 8 20 0
16 17 -18 1 -2 3 6 -7 -8 23 0
16 17 -18 1 -2 3 -6 7 8 0
16 17 -18 1 -2 3 -6 7 -8 0
16 17 -18 1 -2 3 -6 -7 8 0
16 17 -18 1 -2 3 -6 -7 -8 0
16 17 -18 1 -2 -3 6 7 8 0
16 17 -18 1 -2 -3 6 7 -8 0
16 17 -18 1 -2 -3 6 -7 8 25 0
16 17 -18 1 -2 -3 6 -7 -8 32 0
16 17 -18 1 -2 -3 -6 7 8 0
16 17 -18 1 -2 -3 -6 7 -8 0
16 17 -18 1 -2 -3 -6 -7 8 0
16 17 -18 1 -2 -3 -6 -7 -8 0
16 17 -18 -1 2 3 6 7 8 20 0
16 17 -18 -1 2 3 6 7 -8 19 0
16 17 -18 -1 2 3 6 -7 8 0
16 17 -18 -1 2 3 6 -7 -8 0
16 17 -18 -1 2 3 -6 7 8 0
16 17 -18 -1 2 3 -6 7 -8 0
16 17 -18 -1 2 3 -6 -7 8 0
16 17 -18 -1 2 3 -6 -7 -8 0
16 17 -18 -1 2 -3 6 7 8 21 0
16 17 -18 -1 2 -3 6 7 -8 37 0
16 17 -18 -1 2 -3 6 -7 8 0
16 17 -18 -1 2 -3 6 -7 -8 0
16 17 -18 -1 2 -3 -6 7 8 0
16 17 -18 -1 2 -3 -6 7 -8 0
16 17 -18 -1 2 -3 -6 -7 8 0
16 17 -18 -1 2 -3 -6 -7 -8 0
16 17 -18 -1 -2 3 6 7 8 31 0
16 17 -18 -1 -2 3 6 7 -8 0
16 17 -18 -1 -2 3 6 -7 8 0
16 17 -18 -1 -2 3 6 -7 -8 0
16 17 -18 -1 -2 3 -6 7 8 0
16 17 -18 -1 -2 3 -6 7 -8 0
16 17 -18 -1 -2 3 -6 -7 8 0
16 17 -18 -1 -2 3 -6 -7 -8 0
16 17 -18 -1 -2 -3 6 7 8 0
16 17 -18 -1 -2 -3 6 7 -8 0
16 17 -18 -1 -2 -3 6 -7 8 0
16 17 -18 -1 -2 -3 6 -7 -8 0
16 17 -18 -1 -2 -3 -6 7 8 0
16 17 -18 -1 -2 -3 -6 7 -8 0
16 17 -18 -1 -2 -3 -6 -7 8 0
16 17 -18 -1 -2 -3 -6 -7 -8 0
16 -17 18 1 2 3 6 7 8 0
16 -17 18 1 2 3 6 7 -8 0
16 -17 18 1 2 3 6 -7 8 32 0
16 -17 18 1 2 3 6 -7 -8 27 0
16 -17 18 1 2 3 -6 7 8 32 0
16 -17 18 1 2 3 -6 7 -8 20 0
16 -17 18 1 2 3 -6 -7 8 0
16 -17 18 1 2 3 -6 -7 -8 0
16 -17 18 1 2 -3 6 7 8 0
16 -17 18 1 2 -3 6 7 -8 0
16 -17 18 1 2 -3 6 -7 8 23 0
16 -17 18 1 2 -3 6 -7 -8 21 0
16 -17 18 1 2 -3 -6 7 8 25 0
16 -17 18 1 2 -3 -6 7 -8 0
16 -17 18 1 2 -3 -6 -7 8 0
16 -17 18 1 2 -3 -6 -7 -8 0
16 -17 18 1 -2 3 6 7 8 0
16 -17 18 1 -2 3 6 7 -8 24 0
16 -17 18 1 -2 3 6 -7 8 0
16 -17 18 1 -2 3 6 -7 -8 23 0
16 -17 18 1 -2 3 -6 7 8 28 0
16 -17 18 1 -2 3 -6 7 -8 0
16 -17 18 1 -2 3 -6 -7 8 0
16 -17 18 1 -2 3 -6 -7 -8 0
16 -17 18 1 -2 -3 6 7 8 0
16 -17 18 1 -2 -3 6 7 -8 26 0
16 -17 18 1 -2 -3 6 -7 8 0
16 -17 18 1 -2 -3 6 -7 -8 32 0
16 -17 18 1 -2 -3 -6 7 8 0
16 -17 18 1 -2 -3 -6 7 -8 0
16 -17 18 1 -2 -3 -6 -7 8 0
16 -17 18 1 -2 -3 -6 -7 -8 0
16 -17 18 -1 2 3 6 7 8 0
16 -17 18 -1 2 3 6 7 -8 32 0
16 -17 18 -1 2 3 6 -7 8 29 0
16 -17 18 -1 2 3 6 -7 -8 23 0
16 -17 18 -1 2 3 -6 7 8 0
16 -17 18 -1 2 3 -6 7 -8 0
16 -17 18 -1 2 3 -6 -7 8 0
16 -17 18 -1 2 3 -6 -7 -8 0
16 -17 18 -1 2 -3 6 7 8 0
16 -17 18 -1 2 -3 6 7 -8 27 0
16 -17 18 -1 2 -3 6 -7 8 0
16 -17 18 -1 2 -3 6 -7 -8 0
16 -17 18 -1 2 -3 -6 7 8 0
16 -17 18 -1 2 -3 -6 7 -8 0
16 -17 18 -1 2 -3 -6 -7 8 0
16 -17 18 -1 2 -3 -6 -7 -8 0
16 -17 18 -1 -2 3 6 7 8 34 0
16 -17 18 -1 -2 3 6 7 -8 0
16 -17 18 -1 -2 3 6 -7 8 0
16 -17 18 -1 -2 3 6 -7 -8 0
16 -17 18 -1 -2 3 -6 7 8 0
16 -17 18 -1 -2 3 -6 7 -8 0
16 -17 18 -1 -2 3 -6 -7 8 0
16 -17 18 -1 -2 3 -6 -7 -8 0
16 -17 18 -1 -2 -3 6 7 8 27 0
16 -17 18 -1 -2 -3 6 7 -8 0
16 -17 18 -1 -2 -3 6 -7 8 0
16 -17 18 -1 -2 -3 6 -7 -8 0
16 -17 18 -1 -2 -3 -6 7 8 0
16 -17 18 -1 -2 -3 -6 7 -8 0
16 -17 18 -1 -2 -3 -6 -7 8 0
16 -17 18 -1 -2 -3 -6 -7 -8 0
16 -17 -18 1 2 3 6 7 8 0
16 -17 -18 1 2 3 6 7 -8 0
16 -17 -18 1 2 3 6 -7 8 0
16 -17 -18 1 2 3 6 -7 -8 0
16 -17 -18 1 2 3 -6 7 8 0
16 -17 -18 1 2 3 -6 7 -8 0
16 -17 -18 1 2 3 -6 -7 8 0
16 -17 -18 1 2 3 -6 -7 -8 27 0
16 -17 -18 1 2 -3 6 7 8 0
16 -17 -18 1 2 -3 6 7 -8 0
16 -17 -18 1 2 -3 6 -7 8 21 0
16 -17 -18 1 2 -3 6 -7 -8 0
16 -17 -18 1 2 -3 -6 7 8 27 0
16 -17 -18 1 2 -3 -6 7 -8 0
16 -17 -18 1 2 -3 -6 -7 8 0
16 -17 -18 1 2 -3 -6 -7 -8 32 0
16 -17 -18 1 -2 3 6 7 8 0
16 -17 -18 1 -2 3 6 7 -8 24 0
16 -17 -18 1 -2 3 6 -7 8 0
16 -17 -18 1 -2 3 6 -7 -8 21 0
16 -17 -18 1 -2 3 -6 7 8 23 0
16 -17 -18 1 -2 3 -6 7 -8 0
16 -17 -18 1 -2 3 -6 -7 8 23 0
16 -17 -18 1 -2 3 -6 -7 -8 0
16 -17 -18 1 -2 -3 6 7 8 0
16 -17 -18 1 -2 -3 6 7 -8 0
16 -17 -18 1 -2 -3 6 -7 8 27 0
16 -17 -18 1 -2 -3 6 -7 -8 35 0
16 -17 -18 1 -2 -3 -6 7 8 21 0
16 -17 -18 1 -2 -3 -6 7 -8 23 0
16 -17 -18 1 -2 -3 -6 -7 8 0
16 -17 -18 1 -2 -3 -6 -7 -8 0
16 -17 -18 -1 2 3 6 7 8 0
16 -17 -18 -1 2 3 6 7 -8 0
16 -17 -18 -1 2 3 6 -7 8 23 0
16 -17 -18 -1 2 3 6 -7 -8 23 0
16 -17 -18 -1 2 3 -6 7 8 20 0
16 -17 -18 -1 2 3 -6 7 -8 0
16 -17 -18 -1 2 3 -6 -7 8 0
16 -17 -18 -1 2 3 -6 -7 -8 0
16 -17 -18 -1 2 -3 6 7 8 0
16 -17 -18 -1 2 -3 6 7 -8 33 0
16 -17 -18 -1 2 -3 6 -7 8 20 0
16 -17 -18 -1 2 -3 6 -7 -8 0
16 -17 -18 -1 2 -3 -6 7 8 25 0
16 -17 -18 -1 2 -3 -6 7 -8 0
16 -17 -18 -1 2 -3 -6 -7 8 0
16 -17 -18 -1 2 -3 -6 -7 -8 0
16 -17 -18 -1 -2 3 6 7 8 0
16 -17 -18 -1 -2 3 6 7 -8 21 0
16 -17 -18 -1 -2 3 6 -7 8 0
16 -17 -18 -1 -2 3 6 -7 -8 0
16 -17 -18 -1 -2 3 -6 7 8 0
16 -17 -18 -1 -2 3 -6 7 -8 0
16 -17 -18 -1 -2 3 -6 -7 8 0
16 -17 -18 -1 -2 3 -6 -7 -8 0
16 -17 -18 -1 -2 -3 6 7 8 0
16 -17 -18 -1 -2 -3 6 7 -8 21 0
16 -17 -18 -1 -2 -3 6 -7 8 0
16 -17 -18 -1 -2 -3 6 -7 -8 0
16 -17 -18 -1 -2 -3 -6 7 8 0
16 -17 -18 -1 -2 -3 -6 7 -8 0
16 -17 -18 -1 -2 -3 -6 -7 8 0
16 -17 -18 -1 -2 -3 -6 -7 -8 0
-16 17 18 1 2 3 6 7 8 0
-16 17 18 1 2 3 6 7 -8 0
-16 17 18 1 2 3 6 -7 8 0
-16 17 18 1 2 3 6 -7 -8 0
-16 17 18 1 2 3 -6 7 8 0
-16 17 18 1 2 3 -6 7 -8 0
-16 17 18 1 2 3 -6 -7 8 25 0
-16 17 18 1 2 3 -6 -7 -8 27 0
-16 17 18 1 2 -3 6 7 8 0
-16 17 18 1 2 -3 6 7 -8 0
-16 17 18 1 2 -3 6 -7 8 0
-16 17 18 1 2 -3 6 -7 -8 0
-16 17 18 1 2 -3 -6 7 8 0
-16 17 18 1 2 -3 -6 7 -8 20 0
-16 17 18 1 2 -3 -6 -7 8 33 0
-16 17 18 1 2 -3 -6 -7 -8 0
-16 17 18 1 -2 3 6 7 8 0
-16 17 18 1 -2 3 6 7 -8 24 0
-16 17 18 1 -2 3 6 -7 8 0
-16 17 18 1 -2 3 6 -7 -8 0
-16 17 18 1 -2 3 -6 7 8 23 0
-16 17 18 1 -2 3 -6 7 -8 20 0
-16 17 18 1 -2 3 -6 -7 8 0
-16 17 18 1 -2 3 -6 -7 -8 0
-16 17 18 1 -2 -3 6 7 8 0
-16 17 18 1 -2 -3 6 7 -8 0
-16 17 18 1 -2 -3 6 -7 8 0
-16 17 18 1 -2 -3 6 -7 -8 32 0
-16 17 18 1 -2 -3 -6 7 8 21 0
-16 17 18 1 -2 -3 -6 7 -8 23 0
-16 17 18 1 -2 -3 -6 -7 8 0
-16 17 18 1 -2 -3 -6 -7 -8 0
-16 17 18 -1 2 3 6 7 8 0
-16 17 18 -1 2 3 6 7 -8 0
-16 17 18 -1 2 3 6 -7 8 0
-16 17 18 -1 2 3 6 -7 -8 23 0
-16 17 18 -1 2 3 -6 7 8 0
-16 17 18 -1 2 3 -6 7 -8 0
-16 17 18 -1 2 3 -6 -7 8 0
-16 17 18 -1 2 3 -6 -7 -8 0
-16 17 18 -1 2 -3 6 7 8 0
-16 17 18 -1 2 -3 6 7 -8 0
-16 17 18 -1 2 -3 6 -7 8 0
-16 17 18 -1 2 -3 6 -7 -8 29 0
-16 17 18 -1 2 -3 -6 7 8 0
-16 17 18 -1 2 -3 -6 7 -8 35 0
-16 17 18 -1 2 -3 -6 -7 8 0
-16 17 18 -1 2 -3 -6 -7 -8 0
-16 17 18 -1 -2 3 6 7 8 0
-16 17 18 -1 -2 3 6 7 -8 21 0
-16 17 18 -1 -2 3 6 -7 8 21 0
-16 17 18 -1 -2 3 6 -7 -8 35 0
-16 17 18 -1 -2 3 -6 7 8 0
-16 17 18 -1 -2 3 -6 7 -8 33 0
-16 17 18 -1 -2 3 -6 -7 8 0
-16 17 18 -1 -2 3 -6 -7 -8 0
-16 17 18 -1 -2 -3 6 7 8 25 0
-16 17 18 -1 -2 -3 6 7 -8 0
-16 17 18 -1 -2 -3 6 -7 8 0
-16 17 18 -1 -2 -3 6 -7 -8 0
-16 17 18 -1 -2 -3 -6 7 8 0
-16 17 18 -1 -2 -3 -6 7 -8 0
-16 17 18 -1 -2 -3 -6 -7 8 0
-16 17 18 -1 -2 -3 -6 -7 -8 0
-16 17 -18 1 2 3 6 7 8 0
-16 17 -18 1 2 3 6 7 -8 0
-16 17 -18 1 2 3 6 -7 8 0
-16 17 -18 1 2 3 6 -7 -8 0
-16 17 -18 1 2 3 -6 7 8 0
-16 17 -18 1 2 3 -6 7 -8 0
-16 17 -18 1 2 3 -6 -7 8 0
-16 17 -18 1 2 3 -6 -7 -8 0
-16 17 -18 1 2 -3 6 7 8 0
-16 17 -18 1 2 -3 6 7 -8 0
-16 17 -18 1 2 -3 6 -7 8 0
-16 17 -18 1 2 -3 6 -7 -8 0
-16 17 -18 1 2 -3 -6 7 8 0
-16 17 -18 1 2 -3 -6 7 -8 0
-16 17 -18 1 2 -3 -6 -7 8 25 0
-16 17 -18 1 2 -3 -6 -7 -8 19 0
-16 17 -18 1 -2 3 6 7 8 0
-16 17 -18 1 -2 3 6 7 -8 24 0
-16 17 -18 1 -2 3 6 -7 8 0
-16 17 -18 1 -2 3 6 -7 -8 0
-16 17 -18 1 -2 3 -6 7 8 0
-16 17 -18 1 -2 3 -6 7 -8 0
-16 17 -18 1 -2 3 -6 -7 8 29 0
-16 17 -18 1 -2 3 -6 -7 -8 0
-16 17 -18 1 -2 -3 6 7 8 0
-16 17 -18 1 -2 -3 6 7 -8 0
-16 17 -18 1 -2 -3 6 -7 8 0
-16 17 -18 1 -2 -3 6 -7 -8 0
-16 17 -18 1 -2 -3 -6 7 8 0
-16 17 -18 1 -2 -3 -6 7 -8 21 0
-16 17 -18 1 -2 -3 -6 -7 8 20 0
-16 17 -18 1 -2 -3 -6 -7 -8 0
-16 17 -18 -1 2 3 6 7 8 0
-16 17 -18 -1 2 3 6 7 -8 0
-16 17 -18 -1 2 3 6 -7 8 0
-16 17 -18 -1 2 3 6 -7 -8 23 0
-16 17 -18 -1 2 3 -6 7 8 0
-16 17 -18 -1 2 3 -6 7 -8 0
-16 17 -18 -1 2 3 -6 -7 8 32 0
-16 17 -18 -1 2 3 -6 -7 -8 0
-16 17 -18 -1 2 -3 6 7 8 0
-16 17 -18 -1 2 -3 6 7 -8 0
-16 17 -18 -1 2 -3 6 -7 8 0
-16 17 -18 -1 2 -3 6 -7 -8 23 0
-16 17 -18 -1 2 -3 -6 7 8 27 0
-16 17 -18 -1 2 -3 -6 7 -8 32 0
-16 17 -18 -1 2 -3 -6 -7 8 0
-16 17 -18 -1 2 -3 -6 -7 -8 0
-16 17 -18 -1 -2 3 6 7 8 0
-16 17 -18 -1 -2 3 6 7 -8 0
-16 17 -18 -1 -2 3 6 -7 8 23 0
-16 17 -18 -1 -2 3 6 -7 -8 19 0
-16 17 -18 -1 -2 3 -6 7 8 0
-16 17 -18 -1 -2 3 -6 7 -8 0
-16 17 -18 -1 -2 3 -6 -7 8 21 0
-16 17 -18 -1 -2 3 -6 -7 -8 0
-16 17 -18 -1 -2 -3 6 7 8 0
-16 17 -18 -1 -2 -3 6 7 -8 23 0
-16 17 -18 -1 -2 -3 6 -7 8 21 0
-16 17 -18 -1 -2 -3 6 -7 -8 20 0
-16 17 -18 -1 -2 -3 -6 7 8 21 0
-16 17 -18 -1 -2 -3 -6 7 -8 0
-16 17 -18 -1 -2 -3 -6 -7 8 0
-16 17 -18 -1 -2 -3 -6 -7 -8 0
-16 -17 18 1 2 3 6 7 8 0
-16 -17 18 1 2 3 6 7 -8 0
-16 -17 18 1 2 3 6 -7 8 0
-16 -17 18 1 2 3 6 -7 -8 0
-16 -17 18 1 2 3 -6 7 8 0
-16 -17 18 1 2 3 -6 7 -8 0
-16 -17 18 1 2 3 -6 -7 8 0
-16 -17 18 1 2 3 -6 -7 -8 27 0
-16 -17 18 1 2 -3 6 7 8 0
-16 -17 18 1 2 -3 6 7 -8 0
-16 -17 18 1 2 -3 6 -7 8 0
-16 -17 18 1 2 -3 6 -7 -8 0
-16 -17 18 1 2 -3 -6 7 8 0
-16 -17 18 1 2 -3 -6 7 -8 0
-16 -17 18 1 2 -3 -6 -7 8 33 0
-16 -17 18 1 2 -3 -6 -7 -8 32 0
-16 -17 18 1 -2 3 6 7 8 0
-16 -17 18 1 -2 3 6 7 -8 24 0
-16 -17 18 1 -2 3 6 -7 8 0
-16 -17 18 1 -2 3 6 -7 -8 0
-16 -17 18 1 -2 3 -6 7 8 24 0
-16 -17 18 1 -2 3 -6 7 -8 0
-16 -17 18 1 -2 3 -6 -7 8 0
-16 -17 18 1 -2 3 -6 -7 -8 23 0
-16 -17 18 1 -2 -3 6 7 8 0
-16 -17 18 1 -2 -3 6 7 -8 0
-16 -17 18 1 -2 -3 6 -7 8 0
-16 -17 18 1 -2 -3 6 -7 -8 0
-16 -17 18 1 -2 -3 -6 7 8 0
-16 -17 18 1 -2 -3 -6 7 -8 0
-16 -17 18 1 -2 -3 -6 -7 8 0
-16 -17 18 1 -2 -3 -6 -7 -8 21 0
-16 -17 18 -1 2 3 6 7 8 0
-16 -17 18 -1 2 3 6 7 -8 0
-16 -17 18 -1 2 3 6 -7 8 0
-16 -17 18 -1 2 3 6 -7 -8 0
-16 -17 18 -1 2 3 -6 7 8 0
-16 -17 18 -1 2 3 -6 7 -8 20 0
-16 -17 18 -1 2 3 -6 -7 8 19 0
-16 -17 18 -1 2 3 -6 -7 -8 0
-16 -17 18 -1 2 -3 6 7 8 0
-16 -17 18 -1 2 -3 6 7 -8 0
-16 -17 18 -1 2 -3 6 -7 8 0
-16 -17 18 -1 2 -3 6 -7 -8 0
-16 -17 18 -1 2 -3 -6 7 8 0
-16 -17 18 -1 2 -3 -6 7 -8 35 0
-16 -17 18 -1 2 -3 -6 -7 8 20 0
-16 -17 18 -1 2 -3 -6 -7 -8 0
-16 -17 18 -1 -2 3 6 7 8 0
-16 -17 18 -1 -2 3 6 7 -8 0
-16 -17 18 -1 -2 3 6 -7 8 23 0
-16 -17 18 -1 -2 3 6 -7 -8 0
-16 -17 18 -1 -2 3 -6 7 8 20 0
-16 -17 18 -1 -2 3 -6 7 -8 25 0
-16 -17 18 -1 -2 3 -6 -7 8 0
-16 -17 18 -1 -2 3 -6 -7 -8 0
-16 -17 18 -1 -2 -3 6 7 8 0
-16 -17 18 -1 -2 -3 6 7 -8 23 0
-16 -17 18 -1 -2 -3 6 -7 8 21 0
-16 -17 18 -1 -2 -3 6 -7 -8 0
-16 -17 18 -1 -2 -3 -6 7 8 21 0
-16 -17 18 -1 -2 -3 -6 7 -8 36 0
-16 -17 18 -1 -2 -3 -6 -7 8 0
-16 -17 18 -1 -2 -3 -6 -7 -8 0
-16 -17 -18 1 2 3 6 7 8 0
-16 -17 -18 1 2 3 6 7 -8 0
-16 -17 -18 1 2 3 6 -7 8 0
-16 -17 -18 1 2 3 6 -7 -8 0
-16 -17 -18 1 2 3 -6 7 8 0
-16 -17 -18 1 2 3 -6 7 -8 0
-16 -17 -18 1 2 3 -6 -7 8 0
-16 -17 -18 1 2 3 -6 -7 -8 0
-16 -17 -18 1 2 -3 6 7 8 0
-16 -17 -18 1 2 -3 6 7 -8 0
-16 -17 -18 1 2 -3 6 -7 8 0
-16 -17 -18 1 2 -3 6 -7 -8 0
-16 -17 -18 1 2 -3 -6 7 8 0
-16 -17 -18 1 2 -3 -6 7 -8 0
-16 -17 -18 1 2 -3 -6 -7 8 0
-16 -17 -18 1 2 -3 -6 -7 -8 0
-16 -17 -18 1 -2 3 6 7 8 0
-16 -17 -18 1 -2 3 6 7 -8 24 0
-16 -17 -18 1 -2 3 6 -7 8 0
-16 -17 -18 1 -2 3 6 -7 -8 0
-16 -17 -18 1 -2 3 -6 7 8 0
-16 -17 -18 1 -2 3 -6 7 -8 0
-16 -17 -18 1 -2 3 -6 -7 8 0
-16 -17 -18 1 -2 3 -6 -7 -8 29 0
-16 -17 -18 1 -2 -3 6 7 8 0
-16 -17 -18 1 -2 -3 6 7 -8 0
-16 -17 -18 1 -2 -3 6 -7 8 0
-16 -17 -18 1 -2 -3 6 -7 -8 0
-16 -17 -18 1 -2 -3 -6 7 8 0
-16 -17 -18 1 -2 -3 -6 7 -8 0
-16 -17 -18 1 -2 -3 -6 -7 8 0
-16 -17 -18 1 -2 -3 -6 -7 -8 21 0
-16 -17 -18 -1 2 3 6 7 8 0
-16 -17 -18 -1 2 3 6 7 -8 0
-16 -17 -18 -1 2 3 6 -7 8 0
-16 -17 -18 -1 2 3 6 -7 -8 0
-16 -17 -18 -1 2 3 -6 7 8 0
-16 -17 -18 -1 2 3 -6 7 -8 0
-16 -17 -18 -1 2 3 -6 -7 8 32 0
-16 -17 -18 -1 2 3 -6 -7 -8 20 0
-16 -17 -18 -1 2 -3 6 7 8 0
-16 -17 -18 -1 2 -3 6 7 -8 0
-16 -17 -18 -1 2 -3 6 -7 8 0
-16 -17 -18 -1 2 -3 6 -7 -8 0
-16 -17 -18 -1 2 -3 -6 7 8 0
-16 -17 -18 -1 2 -3 -6 7 -8 0
-16 -17 -18 -1 2 -3 -6 -7 8 0
-16 -17 -18 -1 2 -3 -6 -7 -8 20 0
-16 -17 -18 -1 -2 3 6 7 8 0
-16 -17 -18 -1 -2 3 6 7 -8 0
-16 -17 -18 -1 -2 3 6 -7 8 0
-16 -17 -18 -1 -2 3 6 -7 -8 0
-16 -17 -18 -1 -2 3 -6 7 8 0
-16 -17 -18 -1 -2 3 -6 7 -8 33 0
-16 -17 -18 -1 -2 3 -6 -7 8 21 0
-16 -17 -18 -1 -2 3 -6 -7 -8 20 0
-16 -17 -18 -1 -2 -3 6 7 8 0
-16 -17 -18 -1 -2 -3 6 7 -8 0
-16 -17 -18 -1 -2 -3 6 -7 8 0
-16 -17 -18 -1 -2 -3 6 -7 -8 0
-16 -17 -18 -1 -2 -3 -6 7 8 0
-16 -17 -18 -1 -2 -3 -6 7 -8 30 0
-16 -17 -18 -1 -2 -3 -6 -7 8 20 0
-16 -17 -18 -1 -2 -3 -6 -7 -8 20 0
38 39 40 11 12 13 16 17 18 41 0
38 39 40 11 12 13 16 17 -18 95 0
38 39 40 11 12 13 16 -17 18 42 0
38 39 40 11 12 13 16 -17 -18 104 0
38 39 40 11 12 13 -16 17 18 82 0
38 39 40 11 12 13 -16 17 -18 93 0
38 39 40 11 12 13 -16 -17 18 100 0
38 39 40 11 12 13 -16 -17 -18 83 0
38 39 40 11 12 -13 16 17 18 41 0
38 39 40 11 12 -13 16 17 -18 43 0
38 39 40 11 12 -13 16 -17 18 82 0
38 39 40 11 12 -13 16 -17 -18 91 0
38 39 40 11 12 -13 -16 17 18 67 0
38 39 40 11 12 -13 -16 17 -18 70 0
38 39 40 11 12 -13 -16 -17 18 63 0
38 39 40 11 12 -13 -16 -17 -18 92 0
38 39 40 11 -12 13 16 17 18 44 0
38 39 40 11 -12 13 16 17 -18 95 0
38 39 40 11 -12 13 16 -17 18 91 0
38 39 40 11 -12 13 16 -17 -18 91 0
38 39 40 11 -12 13 -16 17 18 62 0
38 39 40 11 -12 13 -16 17 -18 100 0
38 39 40 11 -12 13 -16 -17 18 63 0
38 39 40 11 -12 13 -16 -17 -18 72 0
38 39 40 11 -12 -13 16 17 18 45 0
38 39 40 11 -12 -13 16 17 -18 69 0
38 39 40 11 -12 -13 16 -17 18 62 0
38 39 40 11 -12 -13 16 -17 -18 70 0
38 39 40 11 -12 -13 -16 17 18 47 0
38 39 40 11 -12 -13 -16 17 -18 105 0
38 39 40 11 -12 -13 -16 -17 18 88 0
38 39 40 11 -12 -13 -16 -17 -18 101 0
38 39 40 -11 12 13 16 17 18 46 0
38 39 40 -11 12 13 16 17 -18 62 0
38 39 40 -11 12 13 16 -17 18 91 0
38 39 40 -11 12 13 16 -17 -18 107 0
38 39 40 -11 12 13 -16 17 18 96 0
38 39 40 -11 12 13 -16 17 -18 96 0
38 39 40 -11 12 13 -16 -17 18 71 0
38 39 40 -11 12 13 -16 -17 -18 97 0
38 39 40 -11 12 -13 16 17 18 45 0
38 39 40 -11 12 -13 16 17 -18 104 0
38 39 40 -11 12 -13 16 -17 18 91 0
38 39 40 -11 12 -13 16 -17 -18 67 0
38 39 40 -11 12 -13 -16 17 18 63 0
38 39 40 -11 12 -13 -16 17 -18 100 0
38 39 40 -11 12 -13 -16 -17 18 97 0
38 39 40 -11 12 -13 -16 -17 -18 87 0
38 39 40 -11 -12 13 16 17 18 48 0
38 39 40 -11 -12 13 16 17 -18 107 0
38 39 40 -11 -12 13 16 -17 18 62 0
38 39 40 -11 -12 13 16 -17 -18 96 0
38 39 40 -11 -12 13 -16 17 18 83 0
38 39 40 -11 -12 13 -16 17 -18 93 0
38 39 40 -11 -12 13 -16 -17 18 83 0
38 39 40 -11 -12 13 -16 -17 -18 101 0
38 39 40 -11 -12 -13 16 17 18 49 0
38 39 40 -11 -12 -13 16 17 -18 91 0
38 39 40 -11 -12 -13 16 -17 18 96 0
38 39 40 -11 -12 -13 16 -17 -18 63 0
38 39 40 -11 -12 -13 -16 17 18 63 0
38 39 40 -11 -12 -13 -16 17 -18 50 0
38 39 40 -11 -12 -13 -16 -17 18 63 0
38 39 40 -11 -12 -13 -16 -17 -18 72 0
38 39 -40 11 12 13 16 17 18 102 0
38 39 -40 11 12 13 16 17 -18 66 0
38 39 -40 11 12 13 16 -17 18 60 0
38 39 -40 11 12 13 16 -17 -18 51 0
38 39 -40 11 12 13 -16 17 18 82 0
38 39 -40 11 12 13 -16 17 -18 93 0
38 39 -40 11 12 13 -16 -17 18 100 0
38 39 -40 11 12 13 -16 -17 -18 83 0
38 39 -40 11 12 -13 16 17 18 102 0
38 39 -40 11 12 -13 16 17 -18 43 0
38 39 -40 11 12 -13 16 -17 18 49 0
38 39 -40 11 12 -13 16 -17 -18 91 0
38 39 -40 11 12 -13 -16 17 18 67 0
38 39 -40 11 12 -13 -16 17 -18 70 0
38 39 -40 11 12 -13 -16 -17 18 63 0
38 39 -40 11 12 -13 -16 -17 -18 92 0
38 39 -40 11 -12 13 16 17 18 73 0
38 39 -40 11 -12 13 16 17 -18 66 0
38 39 -40 11 -12 13 16 -17 18 52 0
38 39 -40 11 -12 13 16 -17 -18 91 0
38 39 -40 11 -12 13 -16 17 18 62 0
38 39 -40 11 -12 13 -16 17 -18 100 0
38 39 -40 11 -12 13 -16 -17 18 63 0
38 39 -40 11 -12 13 -16 -17 -18 72 0
38 39 -40 11 -12 -13 16 17 18 69 0
38 39 -40 11 -12 -13 16 17 -18 45 0
38 39 -40 11 -12 -13 16 -17 18 62 0
38 39 -40 11 -12 -13 16 -17 -18 70 0
38 39 -40 11 -12 -13 -16 17 18 47 0
38 39 -40 11 -12 -13 -16 17 -18 105 0
38 39 -40 11 -12 -13 -16 -17 18 88 0
38 39 -40 11 -12 -13 -16 -17 -18 101 0
38 39 -40 -11 12 13 16 17 18 47 0
38 39 -40 -11 12 13 16 17 -18 60 0
38 39 -40 -11 12 13 16 -17 18 91 0
38 39 -40 -11 12 13 16 -17 -18 107 0
38 39 -40 -11 12 13 -16 17 18 96 0
38 39 -40 -11 12 13 -16 17 -18 96 0
38 39 -40 -11 12 13 -16 -17 18 71 0
38 39 -40 -11 12 13 -16 -17 -18 97 0
38 39 -40 -11 12 -13 16 17 18 69 0
38 39 -40 -11 12 -13 16 17 -18 53 0
38 39 -40 -11 12 -13 16 -17 18 91 0
38 39 -40 -11 12 -13 16 -17 -18 67 0
38 39 -40 -11 12 -13 -16 17 18 63 0
38 39 -40 -11 12 -13 -16 17 -18 100 0
38 39 -40 -11 12 -13 -16 -17 18 97 0
38 39 -40 -11 12 -13 -16 -17 -18 87 0
38 39 -40 -11 -12 13 16 17 18 48 0
38 39 -40 -11 -12 13 16 17 -18 74 0
38 39 -40 -11 -12 13 16 -17 18 62 0
38 39 -40 -11 -12 13 16 -17 -18 96 0
38 39 -40 -11 -12 13 -16 17 18 83 0
38 39 -40 -11 -12 13 -16 17 -18 93 0
38 39 -40 -11 -12 13 -16 -17 18 83 0
38 39 -40 -11 -12 13 -16 -17 -18 101 0
38 39 -40 -11 -12 -13 16 17 18 75 0
38 39 -40 -11 -12 -13 16 17 -18 91 0
38 39 -40 -11 -12 -13 16 -17 18 96 0
38 39 -40 -11 -12 -13 16 -17 -18 63 0
38 39 -40 -11 -12 -13 -16 17 18 63 0
38 39 -40 -11 -12 -13 -16 17 -18 50 0
38 39 -40 -11 -12 -13 -16 -17 18 63 0
38 39 -40 -11 -12 -13 -16 -17 -18 72 0
38 -39 40 11 12 13 16 17 18 102 0
38 -39 40 11 12 13 16 17 -18 95 0
38 -39 40 11 12 13 16 -17 18 62 0
38 -39 40 11 12 13 16 -17 -18 51 0
38 -39 40 11 12 13 -16 17 18 75 0
38 -39 40 11 12 13 -16 17 -18 93 0
38 -39 40 11 12 13 -16 -17 18 100 0
38 -39 40 11 12 13 -16 -17 -18 83 0
38 -39 40 11 12 -13 16 17 18 102 0
38 -39 40 11 12 -13 16 17 -18 91 0
38 -39 40 11 12 -13 16 -17 18 75 0
38 -39 40 11 12 -13 16 -17 -18 43 0
38 -39 40 11 12 -13 -16 17 18 67 0
38 -39 40 11 12 -13 -16 17 -18 70 0
38 -39 40 11 12 -13 -16 -17 18 63 0
38 -39 40 11 12 -13 -16 -17 -18 92 0
38 -39 40 11 -12 13 16 17 18 104 0
38 -39 40 11 -12 13 16 17 -18 95 0
38 -39 40 11 -12 13 16 -17 18 61 0
38 -39 40 11 -12 13 16 -17 -18 52 0
38 -39 40 11 -12 13 -16 17 18 62 0
38 -39 40 11 -12 13 -16 17 -18 100 0
38 -39 40 11 -12 13 -16 -17 18 63 0
38 -39 40 11 -12 13 -16 -17 -18 72 0
38 -39 40 11 -12 -13 16 17 18 69 0
38 -39 40 11 -12 -13 16 17 -18 69 0
38 -39 40 11 -12 -13 16 -17 18 60 0
38 -39 40 11 -12 -13 16 -17 -18 70 0
38 -39 40 11 -12 -13 -16 17 18 47 0
38 -39 40 11 -12 -13 -16 17 -18 105 0
38 -39 40 11 -12 -13 -16 -17 18 88 0
38 -39 40 11 -12 -13 -16 -17 -18 101 0
38 -39 40 -11 12 13 16 17 18 47 0
38 -39 40 -11 12 13 16 17 -18 42 0
38 -39 40 -11 12 13 16 -17 18 43 0
38 -39 40 -11 12 13 16 -17 -18 74 0
38 -39 40 -11 12 13 -16 17 18 96 0
38 -39 40 -11 12 13 -16 17 -18 96 0
38 -39 40 -11 12 13 -16 -17 18 71 0
38 -39 40 -11 12 13 -16 -17 -18 97 0
38 -39 40 -11 12 -13 16 17 18 69 0
38 -39 40 -11 12 -13 16 17 -18 54 0
38 -39 40 -11 12 -13 16 -17 18 52 0
38 -39 40 -11 12 -13 16 -17 -18 67 0
38 -39 40 -11 12 -13 -16 17 18 63 0
38 -39 40 -11 12 -13 -16 17 -18 100 0
38 -39 40 -11 12 -13 -16 -17 18 97 0
38 -39 40 -11 12 -13 -16 -17 -18 87 0
38 -39 40 -11 -12 13 16 17 18 68 0
38 -39 40 -11 -12 13 16 17 -18 76 0
38 -39 40 -11 -12 13 16 -17 18 42 0
38 -39 40 -11 -12 13 16 -17 -18 96 0
38 -39 40 -11 -12 13 -16 17 18 83 0
38 -39 40 -11 -12 13 -16 17 -18 93 0
38 -39 40 -11 -12 13 -16 -17 18 83 0
38 -39 40 -11 -12 13 -16 -17 -18 101 0
38 -39 40 -11 -12 -13 16 17 18 82 0
38 -39 40 -11 -12 -13 16 17 -18 61 0
38 -39 40 -11 -12 -13 16 -17 18 96 0
38 -39 40 -11 -12 -13 16 -17 -18 63 0
38 -39 40 -11 -12 -13 -16 17 18 63 0
38 -39 40 -11 -12 -13 -16 17 -18 50 0
38 -39 40 -11 -12 -13 -16 -17 18 63 0
38 -39 40 -11 -12 -13 -16 -17 -18 72 0
38 -39 -40 11 12 13 16 17 18 102 0
38 -39 -40 11 12 13 16 17 -18 95 0
38 -39 -40 11 12 13 16 -17 18 62 0
38 -39 -40 11 12 13 16 -17 -18 104 0
38 -39 -40 11 12 13 -16 17 18 49 0
38 -39 -40 11 12 13 -16 17 -18 93 0
38 -39 -40 11 12 13 -16 -17 18 100 0
38 -39 -40 11 12 13 -16 -17 -18 83 0
38 -39 -40 11 12 -13 16 17 18 102 0
38 -39 -40 11 12 -13 16 17 -18 91 0
38 -39 -40 11 12 -13 16 -17 18 82 0
38 -39 -40 11 12 -13 16 -17 -18 43 0
38 -39 -40 11 12 -13 -16 17 18 77 0
38 -39 -40 11 12 -13 -16 17 -18 70 0
38 -39 -40 11 12 -13 -16 -17 18 63 0
38 -39 -40 11 12 -13 -16 -17 -18 92 0
38 -39 -40 11 -12 13 16 17 18 104 0
38 -39 -40 11 -12 13 16 17 -18 95 0
38 -39 -40 11 -12 13 16 -17 18 91 0
38 -39 -40 11 -12 13 16 -17 -18 61 0
38 -39 -40 11 -12 13 -16 17 18 42 0
38 -39 -40 11 -12 13 -16 17 -18 100 0
38 -39 -40 11 -12 13 -16 -17 18 63 0
38 -39 -40 11 -12 13 -16 -17 -18 72 0
38 -39 -40 11 -12 -13 16 17 18 69 0
38 -39 -40 11 -12 -13 16 17 -18 69 0
38 -39 -40 11 -12 -13 16 -17 18 42 0
38 -39 -40 11 -12 -13 16 -17 -18 64 0
38 -39 -40 11 -12 -13 -16 17 18 47 0
38 -39 -40 11 -12 -13 -16 17 -18 105 0
38 -39 -40 11 -12 -13 -16 -17 18 88 0
38 -39 -40 11 -12 -13 -16 -17 -18 101 0
38 -39 -40 -11 12 13 16 17 18 47 0
38 -39 -40 -11 12 13 16 17 -18 62 0
38 -39 -40 -11 12 13 16 -17 18 43 0
38 -39 -40 -11 12 13 16 -17 -18 76 0
38 -39 -40 -11 12 13 -16 17 18 96 0
38 -39 -40 -11 12 13 -16 17 -18 96 0
38 -39 -40 -11 12 13 -16 -17 18 71 0
38 -39 -40 -11 12 13 -16 -17 -18 97 0
38 -39 -40 -11 12 -13 16 17 18 69 0
38 -39 -40 -11 12 -13 16 17 -18 104 0
38 -39 -40 -11 12 -13 16 -17 18 61 0
38 -39 -40 -11 12 -13 16 -17 -18 77 0
38 -39 -40 -11 12 -13 -16 17 18 63 0
38 -39 -40 -11 12 -13 -16 17 -18 100 0
38 -39 -40 -11 12 -13 -16 -17 18 97 0
38 -39 -40 -11 12 -13 -16 -17 -18 87 0
38 -39 -40 -11 -12 13 16 17 18 68 0
38 -39 -40 -11 -12 13 16 17 -18 74 0
38 -39 -40 -11 -12 13 16 -17 18 60 0
38 -39 -40 -11 -12 13 16 -17 -18 96 0
38 -39 -40 -11 -12 13 -16 17 18 83 0
38 -39 -40 -11 -12 13 -16 17 -18 93 0
38 -39 -40 -11 -12 13 -16 -17 18 83 0
38 -39 -40 -11 -12 13 -16 -17 -18 101 0
38 -39 -40 -11 -12 -13 16 17 18 82 0
38 -39 -40 -11 -12 -13 16 17 -18 52 0
38 -39 -40 -11 -12 -13 16 -17 18 96 0
38 -39 -40 -11 -12 -13 16 -17 -18 63 0
38 -39 -40 -11 -12 -13 -16 17 18 63 0
38 -39 -40 -11 -12 -13 -16 17 -18 50 0
38 -39 -40 -11 -12 -13 -16 -17 18 63 0
38 -39 -40 -11 -12 -13 -16 -17 -18 72 0
-38 39 40 11 12 13 16 17 18 102 0
-38 39 40 11 12 13 16 17 -18 95 0
-38 39 40 11 12 13 16 -17 18 62 0
-38 39 40 11 12 13 16 -17 -18 104 0
-38 39 40 11 12 13 -16 17 18 82 0
-38 39 40 11 12 13 -16 17 -18 58 0
-38 39 40 11 12 13 -16 -17 18 99 0
-38 39 40 11 12 13 -16 -17 -18 83 0
-38 39 40 11 12 -13 16 17 18 102 0
-38 39 40 11 12 -13 16 17 -18 91 0
-38 39 40 11 12 -13 16 -17 18 82 0
-38 39 40 11 12 -13 16 -17 -18 91 0
-38 39 40 11 12 -13 -16 17 18 77 0
-38 39 40 11 12 -13 -16 17 -18 64 0
-38 39 40 11 12 -13 -16 -17 18 63 0
-38 39 40 11 12 -13 -16 -17 -18 92 0
-38 39 40 11 -12 13 16 17 18 104 0
-38 39 40 11 -12 13 16 17 -18 95 0
-38 39 40 11 -12 13 16 -17 18 91 0
-38 39 40 11 -12 13 16 -17 -18 91 0
-38 39 40 11 -12 13 -16 17 18 60 0
-38 39 40 11 -12 13 -16 17 -18 100 0
-38 39 40 11 -12 13 -16 -17 18 63 0
-38 39 40 11 -12 13 -16 -17 -18 72 0
-38 39 40 11 -12 -13 16 17 18 69 0
-38 39 40 11 -12 -13 16 17 -18 69 0
-38 39 40 11 -12 -13 16 -17 18 62 0
-38 39 40 11 -12 -13 16 -17 -18 70 0
-38 39 40 11 -12 -13 -16 17 18 94 0
-38 39 40 11 -12 -13 -16 17 -18 103 0
-38 39 40 11 -12 -13 -16 -17 18 88 0
-38 39 40 11 -12 -13 -16 -17 -18 101 0
-38 39 40 -11 12 13 16 17 18 47 0
-38 39 40 -11 12 13 16 17 -18 62 0
-38 39 40 -11 12 13 16 -17 18 91 0
-38 39 40 -11 12 13 16 -17 -18 74 0
-38 39 40 -11 12 13 -16 17 18 85 0
-38 39 40 -11 12 13 -16 17 -18 96 0
-38 39 40 -11 12 13 -16 -17 18 71 0
-38 39 40 -11 12 13 -16 -17 -18 97 0
-38 39 40 -11 12 -13 16 17 18 69 0
-38 39 40 -11 12 -13 16 17 -18 104 0
-38 39 40 -11 12 -13 16 -17 18 91 0
-38 39 40 -11 12 -13 16 -17 -18 77 0
-38 39 40 -11 12 -13 -16 17 18 55 0
-38 39 40 -11 12 -13 -16 17 -18 100 0
-38 39 40 -11 12 -13 -16 -17 18 97 0
-38 39 40 -11 12 -13 -16 -17 -18 87 0
-38 39 40 -11 -12 13 16 17 18 68 0
-38 39 40 -11 -12 13 16 17 -18 107 0
-38 39 40 -11 -12 13 16 -17 18 62 0
-38 39 40 -11 -12 13 16 -17 -18 85 0
-38 39 40 -11 -12 13 -16 17 18 86 0
-38 39 40 -11 -12 13 -16 17 -18 93 0
-38 39 40 -11 -12 13 -16 -17 18 83 0
-38 39 40 -11 -12 13 -16 -17 -18 101 0
-38 39 40 -11 -12 -13 16 17 18 82 0
-38 39 40 -11 -12 -13 16 17 -18 91 0
-38 39 40 -11 -12 -13 16 -17 18 85 0
-38 39 40 -11 -12 -13 16 -17 -18 56 0
-38 39 40 -11 -12 -13 -16 17 18 63 0
-38 39 40 -11 -12 -13 -16 17 -18 50 0
-38 39 40 -11 -12 -13 -16 -17 18 63 0
-38 39 40 -11 -12 -13 -16 -17 -18 72 0
-38 39 -40 11 12 13 16 17 18 102 0
-38 39 -40 11 12 13 16 17 -18 95 0
-38 39 -40 11 12 13 16 -17 18 62 0
-38 39 -40 11 12 13 16 -17 -18 104 0
-38 39 -40 11 12 13 -16 17 18 82 0
-38 39 -40 11 12 13 -16 17 -18 78 0
-38 39 -40 11 12 13 -16 -17 18 100 0
-38 39 -40 11 12 13 -16 -17 -18 83 0
-38 39 -40 11 12 -13 16 17 18 102 0
-38 39 -40 11 12 -13 16 17 -18 91 0
-38 39 -40 11 12 -13 16 -17 18 82 0
-38 39 -40 11 12 -13 16 -17 -18 91 0
-38 39 -40 11 12 -13 -16 17 18 67 0
-38 39 -40 11 12 -13 -16 17 -18 70 0
-38 39 -40 11 12 -13 -16 -17 18 56 0
-38 39 -40 11 12 -13 -16 -17 -18 92 0
-38 39 -40 11 -12 13 16 17 18 104 0
-38 39 -40 11 -12 13 16 17 -18 95 0
-38 39 -40 11 -12 13 16 -17 18 91 0
-38 39 -40 11 -12 13 16 -17 -18 91 0
-38 39 -40 11 -12 13 -16 17 18 62 0
-38 39 -40 11 -12 13 -16 17 -18 99 0
-38 39 -40 11 -12 13 -16 -17 18 56 0
-38 39 -40 11 -12 13 -16 -17 -18 72 0
-38 39 -40 11 -12 -13 16 17 18 69 0
-38 39 -40 11 -12 -13 16 17 -18 69 0
-38 39 -40 11 -12 -13 16 -17 18 62 0
-38 39 -40 11 -12 -13 16 -17 -18 70 0
-38 39 -40 11 -12 -13 -16 17 18 47 0
-38 39 -40 11 -12 -13 -16 17 -18 109 0
-38 39 -40 11 -12 -13 -16 -17 18 84 0
-38 39 -40 11 -12 -13 -16 -17 -18 101 0
-38 39 -40 -11 12 13 16 17 18 47 0
-38 39 -40 -11 12 13 16 17 -18 62 0
-38 39 -40 -11 12 13 16 -17 18 91 0
-38 39 -40 -11 12 13 16 -17 -18 107 0
-38 39 -40 -11 12 13 -16 17 18 96 0
-38 39 -40 -11 12 13 -16 17 -18 85 0
-38 39 -40 -11 12 13 -16 -17 18 57 0
-38 39 -40 -11 12 13 -16 -17 -18 97 0
-38 39 -40 -11 12 -13 16 17 18 69 0
-38 39 -40 -11 12 -13 16 17 -18 104 0
-38 39 -40 -11 12 -13 16 -17 18 91 0
-38 39 -40 -11 12 -13 16 -17 -18 67 0
-38 39 -40 -11 12 -13 -16 17 18 56 0
-38 39 -40 -11 12 -13 -16 17 -18 99 0
-38 39 -40 -11 12 -13 -16 -17 18 97 0
-38 39 -40 -11 12 -13 -16 -17 -18 87 0
-38 39 -40 -11 -12 13 16 17 18 68 0
-38 39 -40 -11 -12 13 16 17 -18 107 0
-38 39 -40 -11 -12 13 16 -17 18 62 0
-38 39 -40 -11 -12 13 16 -17 -18 96 0
-38 39 -40 -11 -12 13 -16 17 18 108 0
-38 39 -40 -11 -12 13 -16 17 -18 78 0
-38 39 -40 -11 -12 13 -16 -17 18 83 0
-38 39 -40 -11 -12 13 -16 -17 -18 101 0
-38 39 -40 -11 -12 -13 16 17 18 82 0
-38 39 -40 -11 -12 -13 16 17 -18 91 0
-38 39 -40 -11 -12 -13 16 -17 18 96 0
-38 39 -40 -11 -12 -13 16 -17 -18 55 0
-38 39 -40 -11 -12 -13 -16 17 18 56 0
-38 39 -40 -11 -12 -13 -16 17 -18 50 0
-38 39 -40 -11 -12 -13 -16 -17 18 63 0
-38 39 -40 -11 -12 -13 -16 -17 -18 72 0
-38 -39 40 11 12 13 16 17 18 102 0
-38 -39 40 11 12 13 16 17 -18 95 0
-38 -39 40 11 12 13 16 -17 18 62 0
-38 -39 40 11 12 13 16 -17 -18 104 0
-38 -39 40 11 12 13 -16 17 18 82 0
-38 -39 40 11 12 13 -16 17 -18 93 0
-38 -39 40 11 12 13 -16 -17 18 100 0
-38 -39 40 11 12 13 -16 -17 -18 106 0
-38 -39 40 11 12 -13 16 17 18 102 0
-38 -39 40 11 12 -13 16 17 -18 91 0
-38 -39 40 11 12 -13 16 -17 18 82 0
-38 -39 40 11 12 -13 16 -17 -18 91 0
-38 -39 40 11 12 -13 -16 17 18 67 0
-38 -39 40 11 12 -13 -16 17 -18 70 0
-38 -39 40 11 12 -13 -16 -17 18 55 0
-38 -39 40 11 12 -13 -16 -17 -18 59 0
-38 -39 40 11 -12 13 16 17 18 104 0
-38 -39 40 11 -12 13 16 17 -18 95 0
-38 -39 40 11 -12 13 16 -17 18 91 0
-38 -39 40 11 -12 13 16 -17 -18 91 0
-38 -39 40 11 -12 13 -16 17 18 62 0
-38 -39 40 11 -12 13 -16 17 -18 100 0
-38 -39 40 11 -12 13 -16 -17 18 55 0
-38 -39 40 11 -12 13 -16 -17 -18 72 0
-38 -39 40 11 -12 -13 16 17 18 69 0
-38 -39 40 11 -12 -13 16 17 -18 69 0
-38 -39 40 11 -12 -13 16 -17 18 62 0
-38 -39 40 11 -12 -13 16 -17 -18 70 0
-38 -39 40 11 -12 -13 -16 17 18 47 0
-38 -39 40 11 -12 -13 -16 17 -18 105 0
-38 -39 40 11 -12 -13 -16 -17 18 84 0
-38 -39 40 11 -12 -13 -16 -17 -18 101 0
-38 -39 40 -11 12 13 16 17 18 47 0
-38 -39 40 -11 12 13 16 17 -18 62 0
-38 -39 40 -11 12 13 16 -17 18 91 0
-38 -39 40 -11 12 13 16 -17 -18 107 0
-38 -39 40 -11 12 13 -16 17 18 96 0
-38 -39 40 -11 12 13 -16 17 -18 96 0
-38 -39 40 -11 12 13 -16 -17 18 65 0
-38 -39 40 -11 12 13 -16 -17 -18 97 0
-38 -39 40 -11 12 -13 16 17 18 69 0
-38 -39 40 -11 12 -13 16 17 -18 104 0
-38 -39 40 -11 12 -13 16 -17 18 91 0
-38 -39 40 -11 12 -13 16 -17 -18 67 0
-38 -39 40 -11 12 -13 -16 17 18 63 0
-38 -39 40 -11 12 -13 -16 17 -18 100 0
-38 -39 40 -11 12 -13 -16 -17 18 98 0
-38 -39 40 -11 12 -13 -16 -17 -18 87 0
-38 -39 40 -11 -12 13 16 17 18 68 0
-38 -39 40 -11 -12 13 16 17 -18 107 0
-38 -39 40 -11 -12 13 16 -17 18 62 0
-38 -39 40 -11 -12 13 16 -17 -18 96 0
-38 -39 40 -11 -12 13 -16 17 18 83 0
-38 -39 40 -11 -12 13 -16 17 -18 58 0
-38 -39 40 -11 -12 13 -16 -17 18 81 0
-38 -39 40 -11 -12 13 -16 -17 -18 101 0
-38 -39 40 -11 -12 -13 16 17 18 82 0
-38 -39 40 -11 -12 -13 16 17 -18 91 0
-38 -39 40 -11 -12 -13 16 -17 18 96 0
-38 -39 40 -11 -12 -13 16 -17 -18 63 0
-38 -39 40 -11 -12 -13 -16 17 18 55 0
-38 -39 40 -11 -12 -13 -16 17 -18 89 0
-38 -39 40 -11 -12 -13 -16 -17 18 56 0
-38 -39 40 -11 -12 -13 -16 -17 -18 72 0
-38 -39 -40 11 12 13 16 17 18 102 0
-38 -39 -40 11 12 13 16 17 -18 95 0
-38 -39 -40 11 12 13 16 -17 18 62 0
-38 -39 -40 11 12 13 16 -17 -18 104 0
-38 -39 -40 11 12 13 -16 17 18 82 0
-38 -39 -40 11 12 13 -16 17 -18 93 0
-38 -39 -40 11 12 13 -16 -17 18 100 0
-38 -39 -40 11 12 13 -16 -17 -18 81 0
-38 -39 -40 11 12 -13 16 17 18 102 0
-38 -39 -40 11 12 -13 16 17 -18 91 0
-38 -39 -40 11 12 -13 16 -17 18 82 0
-38 -39 -40 11 12 -13 16 -17 -18 91 0
-38 -39 -40 11 12 -13 -16 17 18 67 0
-38 -39 -40 11 12 -13 -16 17 -18 70 0
-38 -39 -40 11 12 -13 -16 -17 18 63 0
-38 -39 -40 11 12 -13 -16 -17 -18 59 0
-38 -39 -40 11 -12 13 16 17 18 104 0
-38 -39 -40 11 -12 13 16 17 -18 95 0
-38 -39 -40 11 -12 13 16 -17 18 91 0
-38 -39 -40 11 -12 13 16 -17 -18 91 0
-38 -39 -40 11 -12 13 -16 17 18 62 0
-38 -39 -40 11 -12 13 -16 17 -18 100 0
-38 -39 -40 11 -12 13 -16 -17 18 63 0
-38 -39 -40 11 -12 13 -16 -17 -18 80 0
-38 -39 -40 11 -12 -13 16 17 18 69 0
-38 -39 -40 11 -12 -13 16 17 -18 69 0
-38 -39 -40 11 -12 -13 16 -17 18 62 0
-38 -39 -40 11 -12 -13 16 -17 -18 70 0
-38 -39 -40 11 -12 -13 -16 17 18 47 0
-38 -39 -40 11 -12 -13 -16 17 -18 105 0
-38 -39 -40 11 -12 -13 -16 -17 18 84 0
-38 -39 -40 11 -12 -13 -16 -17 -18 90 0
-38 -39 -40 -11 12 13 16 17 18 47 0
-38 -39 -40 -11 12 13 16 17 -18 62 0
-38 -39 -40 -11 12 13 16 -17 18 91 0
-38 -39 -40 -11 12 13 16 -17 -18 107 0
-38 -39 -40 -11 12 13 -16 17 18 96 0
-38 -39 -40 -11 12 13 -16 17 -18 96 0
-38 -39 -40 -11 12 13 -16 -17 18 71 0
-38 -39 -40 -11 12 13 -16 -17 -18 98 0
-38 -39 -40 -11 12 -13 16 17 18 69 0
-38 -39 -40 -11 12 -13 16 17 -18 104 0
-38 -39 -40 -11 12 -13 16 -17 18 91 0
-38 -39 -40 -11 12 -13 16 -17 -18 67 0
-38 -39 -40 -11 12 -13 -16 17 18 63 0
-38 -39 -40 -11 12 -13 -16 17 -18 100 0
-38 -39 -40 -11 12 -13 -16 -17 18 97 0
-38 -39 -40 -11 12 -13 -16 -17 -18 79 0
-38 -39 -40 -11 -12 13 16 17 18 68 0
-38 -39 -40 -11 -12 13 16 17 -18 107 0
-38 -39 -40 -11 -12 13 16 -17 18 62 0
-38 -39 -40 -11 -12 13 16 -17 -18 96 0
-38 -39 -40 -11 -12 13 -16 17 18 83 0
-38 -39 -40 -11 -12 13 -16 17 -18 93 0
-38 -39 -40 -11 -12 13 -16 -17 18 106 0
-38 -39 -40 -11 -12 13 -16 -17 -18 90 0
-38 -39 -40 -11 -12 -13 16 17 18 82 0
-38 -39 -40 -11 -12 -13 16 17 -18 91 0
-38 -39 -40 -11 -12 -13 16 -17 18 96 0
-38 -39 -40 -11 -12 -13 16 -17 -18 63 0
-38 -39 -40 -11 -12 -13 -16 17 18 63 0
-38 -39 -40 -11 -12 -13 -16 17 -18 50 0
-38 -39 -40 -11 -12 -13 -16 -17 18 55 0
-38 -39 -40 -11 -12 -13 -16 -17 -18 80 0
